(declare-fun C1 () Real)
(declare-fun C2 () Real)
(declare-fun C3 () Real)
(declare-fun C4 () Real)
(declare-fun C5 () Real)
(declare-fun C6 () Real)
(declare-fun C7 () Real)
(declare-fun C8 () Real)
(declare-fun C9 () Real)
(declare-fun C10 () Real)
(declare-fun k () Real)
(assert (let 
(( $goal (<= (+ (/ C1 752 ) (/ C2 2138 ) (/ C3 2453 ) (/ C4 3296 ) (/ C5 3972 ) (/ C6 4012 ) (/ C7 4583 ) (/ C8 4788 ) (/ C9 4800 ) (/ C10 4855 ) ) k ) ))
(let 
(($phi ( and ( or  (>= 752 (+  (* 1 C1)  (* 0 C2)  (* 0 C3)  (* 0 C4)  (* 0 C5)  (* 0 C6)  (* 0 C7)  (* 0 C8)  (* 0 C9)  (* 0 C10) )) ) ( or  (>= 1504 (+  (* 2 C1)  (* 1 C2)  (* 0 C3)  (* 0 C4)  (* 0 C5)  (* 0 C6)  (* 0 C7)  (* 0 C8)  (* 0 C9)  (* 0 C10) ))  (>= 2138 (+  (* 3 C1)  (* 1 C2)  (* 0 C3)  (* 0 C4)  (* 0 C5)  (* 0 C6)  (* 0 C7)  (* 0 C8)  (* 0 C9)  (* 0 C10) )) ) ( or  (>= 1504 (+  (* 2 C1)  (* 1 C2)  (* 1 C3)  (* 0 C4)  (* 0 C5)  (* 0 C6)  (* 0 C7)  (* 0 C8)  (* 0 C9)  (* 0 C10) ))  (>= 2138 (+  (* 3 C1)  (* 1 C2)  (* 1 C3)  (* 0 C4)  (* 0 C5)  (* 0 C6)  (* 0 C7)  (* 0 C8)  (* 0 C9)  (* 0 C10) ))  (>= 2256 (+  (* 3 C1)  (* 2 C2)  (* 1 C3)  (* 0 C4)  (* 0 C5)  (* 0 C6)  (* 0 C7)  (* 0 C8)  (* 0 C9)  (* 0 C10) ))  (>= 2453 (+  (* 4 C1)  (* 2 C2)  (* 1 C3)  (* 0 C4)  (* 0 C5)  (* 0 C6)  (* 0 C7)  (* 0 C8)  (* 0 C9)  (* 0 C10) )) ) ( or  (>= 1504 (+  (* 2 C1)  (* 1 C2)  (* 1 C3)  (* 1 C4)  (* 0 C5)  (* 0 C6)  (* 0 C7)  (* 0 C8)  (* 0 C9)  (* 0 C10) ))  (>= 2138 (+  (* 3 C1)  (* 1 C2)  (* 1 C3)  (* 1 C4)  (* 0 C5)  (* 0 C6)  (* 0 C7)  (* 0 C8)  (* 0 C9)  (* 0 C10) ))  (>= 2256 (+  (* 3 C1)  (* 2 C2)  (* 1 C3)  (* 1 C4)  (* 0 C5)  (* 0 C6)  (* 0 C7)  (* 0 C8)  (* 0 C9)  (* 0 C10) ))  (>= 2453 (+  (* 4 C1)  (* 2 C2)  (* 1 C3)  (* 1 C4)  (* 0 C5)  (* 0 C6)  (* 0 C7)  (* 0 C8)  (* 0 C9)  (* 0 C10) ))  (>= 3008 (+  (* 4 C1)  (* 2 C2)  (* 2 C3)  (* 1 C4)  (* 0 C5)  (* 0 C6)  (* 0 C7)  (* 0 C8)  (* 0 C9)  (* 0 C10) ))  (>= 3296 (+  (* 5 C1)  (* 2 C2)  (* 2 C3)  (* 1 C4)  (* 0 C5)  (* 0 C6)  (* 0 C7)  (* 0 C8)  (* 0 C9)  (* 0 C10) )) ) ( or  (>= 1504 (+  (* 2 C1)  (* 1 C2)  (* 1 C3)  (* 1 C4)  (* 1 C5)  (* 0 C6)  (* 0 C7)  (* 0 C8)  (* 0 C9)  (* 0 C10) ))  (>= 2138 (+  (* 3 C1)  (* 1 C2)  (* 1 C3)  (* 1 C4)  (* 1 C5)  (* 0 C6)  (* 0 C7)  (* 0 C8)  (* 0 C9)  (* 0 C10) ))  (>= 2256 (+  (* 3 C1)  (* 2 C2)  (* 1 C3)  (* 1 C4)  (* 1 C5)  (* 0 C6)  (* 0 C7)  (* 0 C8)  (* 0 C9)  (* 0 C10) ))  (>= 2453 (+  (* 4 C1)  (* 2 C2)  (* 1 C3)  (* 1 C4)  (* 1 C5)  (* 0 C6)  (* 0 C7)  (* 0 C8)  (* 0 C9)  (* 0 C10) ))  (>= 3008 (+  (* 4 C1)  (* 2 C2)  (* 2 C3)  (* 1 C4)  (* 1 C5)  (* 0 C6)  (* 0 C7)  (* 0 C8)  (* 0 C9)  (* 0 C10) ))  (>= 3296 (+  (* 5 C1)  (* 2 C2)  (* 2 C3)  (* 1 C4)  (* 1 C5)  (* 0 C6)  (* 0 C7)  (* 0 C8)  (* 0 C9)  (* 0 C10) ))  (>= 3760 (+  (* 5 C1)  (* 2 C2)  (* 2 C3)  (* 2 C4)  (* 1 C5)  (* 0 C6)  (* 0 C7)  (* 0 C8)  (* 0 C9)  (* 0 C10) ))  (>= 3972 (+  (* 6 C1)  (* 2 C2)  (* 2 C3)  (* 2 C4)  (* 1 C5)  (* 0 C6)  (* 0 C7)  (* 0 C8)  (* 0 C9)  (* 0 C10) )) ) ( or  (>= 1504 (+  (* 2 C1)  (* 1 C2)  (* 1 C3)  (* 1 C4)  (* 1 C5)  (* 1 C6)  (* 0 C7)  (* 0 C8)  (* 0 C9)  (* 0 C10) ))  (>= 2138 (+  (* 3 C1)  (* 1 C2)  (* 1 C3)  (* 1 C4)  (* 1 C5)  (* 1 C6)  (* 0 C7)  (* 0 C8)  (* 0 C9)  (* 0 C10) ))  (>= 2256 (+  (* 3 C1)  (* 2 C2)  (* 1 C3)  (* 1 C4)  (* 1 C5)  (* 1 C6)  (* 0 C7)  (* 0 C8)  (* 0 C9)  (* 0 C10) ))  (>= 2453 (+  (* 4 C1)  (* 2 C2)  (* 1 C3)  (* 1 C4)  (* 1 C5)  (* 1 C6)  (* 0 C7)  (* 0 C8)  (* 0 C9)  (* 0 C10) ))  (>= 3008 (+  (* 4 C1)  (* 2 C2)  (* 2 C3)  (* 1 C4)  (* 1 C5)  (* 1 C6)  (* 0 C7)  (* 0 C8)  (* 0 C9)  (* 0 C10) ))  (>= 3296 (+  (* 5 C1)  (* 2 C2)  (* 2 C3)  (* 1 C4)  (* 1 C5)  (* 1 C6)  (* 0 C7)  (* 0 C8)  (* 0 C9)  (* 0 C10) ))  (>= 3760 (+  (* 5 C1)  (* 2 C2)  (* 2 C3)  (* 2 C4)  (* 1 C5)  (* 1 C6)  (* 0 C7)  (* 0 C8)  (* 0 C9)  (* 0 C10) ))  (>= 3972 (+  (* 6 C1)  (* 2 C2)  (* 2 C3)  (* 2 C4)  (* 1 C5)  (* 1 C6)  (* 0 C7)  (* 0 C8)  (* 0 C9)  (* 0 C10) ))  (>= 4012 (+  (* 6 C1)  (* 2 C2)  (* 2 C3)  (* 2 C4)  (* 2 C5)  (* 1 C6)  (* 0 C7)  (* 0 C8)  (* 0 C9)  (* 0 C10) )) ) ( or  (>= 1504 (+  (* 2 C1)  (* 1 C2)  (* 1 C3)  (* 1 C4)  (* 1 C5)  (* 1 C6)  (* 1 C7)  (* 0 C8)  (* 0 C9)  (* 0 C10) ))  (>= 2138 (+  (* 3 C1)  (* 1 C2)  (* 1 C3)  (* 1 C4)  (* 1 C5)  (* 1 C6)  (* 1 C7)  (* 0 C8)  (* 0 C9)  (* 0 C10) ))  (>= 2256 (+  (* 3 C1)  (* 2 C2)  (* 1 C3)  (* 1 C4)  (* 1 C5)  (* 1 C6)  (* 1 C7)  (* 0 C8)  (* 0 C9)  (* 0 C10) ))  (>= 2453 (+  (* 4 C1)  (* 2 C2)  (* 1 C3)  (* 1 C4)  (* 1 C5)  (* 1 C6)  (* 1 C7)  (* 0 C8)  (* 0 C9)  (* 0 C10) ))  (>= 3008 (+  (* 4 C1)  (* 2 C2)  (* 2 C3)  (* 1 C4)  (* 1 C5)  (* 1 C6)  (* 1 C7)  (* 0 C8)  (* 0 C9)  (* 0 C10) ))  (>= 3296 (+  (* 5 C1)  (* 2 C2)  (* 2 C3)  (* 1 C4)  (* 1 C5)  (* 1 C6)  (* 1 C7)  (* 0 C8)  (* 0 C9)  (* 0 C10) ))  (>= 3760 (+  (* 5 C1)  (* 2 C2)  (* 2 C3)  (* 2 C4)  (* 1 C5)  (* 1 C6)  (* 1 C7)  (* 0 C8)  (* 0 C9)  (* 0 C10) ))  (>= 3972 (+  (* 6 C1)  (* 2 C2)  (* 2 C3)  (* 2 C4)  (* 1 C5)  (* 1 C6)  (* 1 C7)  (* 0 C8)  (* 0 C9)  (* 0 C10) ))  (>= 4012 (+  (* 6 C1)  (* 2 C2)  (* 2 C3)  (* 2 C4)  (* 2 C5)  (* 1 C6)  (* 1 C7)  (* 0 C8)  (* 0 C9)  (* 0 C10) ))  (>= 4276 (+  (* 6 C1)  (* 2 C2)  (* 2 C3)  (* 2 C4)  (* 2 C5)  (* 2 C6)  (* 1 C7)  (* 0 C8)  (* 0 C9)  (* 0 C10) ))  (>= 4512 (+  (* 6 C1)  (* 3 C2)  (* 2 C3)  (* 2 C4)  (* 2 C5)  (* 2 C6)  (* 1 C7)  (* 0 C8)  (* 0 C9)  (* 0 C10) ))  (>= 4583 (+  (* 7 C1)  (* 3 C2)  (* 2 C3)  (* 2 C4)  (* 2 C5)  (* 2 C6)  (* 1 C7)  (* 0 C8)  (* 0 C9)  (* 0 C10) )) ) ( or  (>= 1504 (+  (* 2 C1)  (* 1 C2)  (* 1 C3)  (* 1 C4)  (* 1 C5)  (* 1 C6)  (* 1 C7)  (* 1 C8)  (* 0 C9)  (* 0 C10) ))  (>= 2138 (+  (* 3 C1)  (* 1 C2)  (* 1 C3)  (* 1 C4)  (* 1 C5)  (* 1 C6)  (* 1 C7)  (* 1 C8)  (* 0 C9)  (* 0 C10) ))  (>= 2256 (+  (* 3 C1)  (* 2 C2)  (* 1 C3)  (* 1 C4)  (* 1 C5)  (* 1 C6)  (* 1 C7)  (* 1 C8)  (* 0 C9)  (* 0 C10) ))  (>= 2453 (+  (* 4 C1)  (* 2 C2)  (* 1 C3)  (* 1 C4)  (* 1 C5)  (* 1 C6)  (* 1 C7)  (* 1 C8)  (* 0 C9)  (* 0 C10) ))  (>= 3008 (+  (* 4 C1)  (* 2 C2)  (* 2 C3)  (* 1 C4)  (* 1 C5)  (* 1 C6)  (* 1 C7)  (* 1 C8)  (* 0 C9)  (* 0 C10) ))  (>= 3296 (+  (* 5 C1)  (* 2 C2)  (* 2 C3)  (* 1 C4)  (* 1 C5)  (* 1 C6)  (* 1 C7)  (* 1 C8)  (* 0 C9)  (* 0 C10) ))  (>= 3760 (+  (* 5 C1)  (* 2 C2)  (* 2 C3)  (* 2 C4)  (* 1 C5)  (* 1 C6)  (* 1 C7)  (* 1 C8)  (* 0 C9)  (* 0 C10) ))  (>= 3972 (+  (* 6 C1)  (* 2 C2)  (* 2 C3)  (* 2 C4)  (* 1 C5)  (* 1 C6)  (* 1 C7)  (* 1 C8)  (* 0 C9)  (* 0 C10) ))  (>= 4012 (+  (* 6 C1)  (* 2 C2)  (* 2 C3)  (* 2 C4)  (* 2 C5)  (* 1 C6)  (* 1 C7)  (* 1 C8)  (* 0 C9)  (* 0 C10) ))  (>= 4276 (+  (* 6 C1)  (* 2 C2)  (* 2 C3)  (* 2 C4)  (* 2 C5)  (* 2 C6)  (* 1 C7)  (* 1 C8)  (* 0 C9)  (* 0 C10) ))  (>= 4512 (+  (* 6 C1)  (* 3 C2)  (* 2 C3)  (* 2 C4)  (* 2 C5)  (* 2 C6)  (* 1 C7)  (* 1 C8)  (* 0 C9)  (* 0 C10) ))  (>= 4583 (+  (* 7 C1)  (* 3 C2)  (* 2 C3)  (* 2 C4)  (* 2 C5)  (* 2 C6)  (* 1 C7)  (* 1 C8)  (* 0 C9)  (* 0 C10) ))  (>= 4788 (+  (* 7 C1)  (* 3 C2)  (* 2 C3)  (* 2 C4)  (* 2 C5)  (* 2 C6)  (* 2 C7)  (* 1 C8)  (* 0 C9)  (* 0 C10) )) ) ( or  (>= 1504 (+  (* 2 C1)  (* 1 C2)  (* 1 C3)  (* 1 C4)  (* 1 C5)  (* 1 C6)  (* 1 C7)  (* 1 C8)  (* 1 C9)  (* 0 C10) ))  (>= 2138 (+  (* 3 C1)  (* 1 C2)  (* 1 C3)  (* 1 C4)  (* 1 C5)  (* 1 C6)  (* 1 C7)  (* 1 C8)  (* 1 C9)  (* 0 C10) ))  (>= 2256 (+  (* 3 C1)  (* 2 C2)  (* 1 C3)  (* 1 C4)  (* 1 C5)  (* 1 C6)  (* 1 C7)  (* 1 C8)  (* 1 C9)  (* 0 C10) ))  (>= 2453 (+  (* 4 C1)  (* 2 C2)  (* 1 C3)  (* 1 C4)  (* 1 C5)  (* 1 C6)  (* 1 C7)  (* 1 C8)  (* 1 C9)  (* 0 C10) ))  (>= 3008 (+  (* 4 C1)  (* 2 C2)  (* 2 C3)  (* 1 C4)  (* 1 C5)  (* 1 C6)  (* 1 C7)  (* 1 C8)  (* 1 C9)  (* 0 C10) ))  (>= 3296 (+  (* 5 C1)  (* 2 C2)  (* 2 C3)  (* 1 C4)  (* 1 C5)  (* 1 C6)  (* 1 C7)  (* 1 C8)  (* 1 C9)  (* 0 C10) ))  (>= 3760 (+  (* 5 C1)  (* 2 C2)  (* 2 C3)  (* 2 C4)  (* 1 C5)  (* 1 C6)  (* 1 C7)  (* 1 C8)  (* 1 C9)  (* 0 C10) ))  (>= 3972 (+  (* 6 C1)  (* 2 C2)  (* 2 C3)  (* 2 C4)  (* 1 C5)  (* 1 C6)  (* 1 C7)  (* 1 C8)  (* 1 C9)  (* 0 C10) ))  (>= 4012 (+  (* 6 C1)  (* 2 C2)  (* 2 C3)  (* 2 C4)  (* 2 C5)  (* 1 C6)  (* 1 C7)  (* 1 C8)  (* 1 C9)  (* 0 C10) ))  (>= 4276 (+  (* 6 C1)  (* 2 C2)  (* 2 C3)  (* 2 C4)  (* 2 C5)  (* 2 C6)  (* 1 C7)  (* 1 C8)  (* 1 C9)  (* 0 C10) ))  (>= 4512 (+  (* 6 C1)  (* 3 C2)  (* 2 C3)  (* 2 C4)  (* 2 C5)  (* 2 C6)  (* 1 C7)  (* 1 C8)  (* 1 C9)  (* 0 C10) ))  (>= 4583 (+  (* 7 C1)  (* 3 C2)  (* 2 C3)  (* 2 C4)  (* 2 C5)  (* 2 C6)  (* 1 C7)  (* 1 C8)  (* 1 C9)  (* 0 C10) ))  (>= 4788 (+  (* 7 C1)  (* 3 C2)  (* 2 C3)  (* 2 C4)  (* 2 C5)  (* 2 C6)  (* 2 C7)  (* 1 C8)  (* 1 C9)  (* 0 C10) ))  (>= 4800 (+  (* 7 C1)  (* 3 C2)  (* 2 C3)  (* 2 C4)  (* 2 C5)  (* 2 C6)  (* 2 C7)  (* 2 C8)  (* 1 C9)  (* 0 C10) )) ) ( or  (>= 1504 (+  (* 2 C1)  (* 1 C2)  (* 1 C3)  (* 1 C4)  (* 1 C5)  (* 1 C6)  (* 1 C7)  (* 1 C8)  (* 1 C9)  (* 1 C10) ))  (>= 2138 (+  (* 3 C1)  (* 1 C2)  (* 1 C3)  (* 1 C4)  (* 1 C5)  (* 1 C6)  (* 1 C7)  (* 1 C8)  (* 1 C9)  (* 1 C10) ))  (>= 2256 (+  (* 3 C1)  (* 2 C2)  (* 1 C3)  (* 1 C4)  (* 1 C5)  (* 1 C6)  (* 1 C7)  (* 1 C8)  (* 1 C9)  (* 1 C10) ))  (>= 2453 (+  (* 4 C1)  (* 2 C2)  (* 1 C3)  (* 1 C4)  (* 1 C5)  (* 1 C6)  (* 1 C7)  (* 1 C8)  (* 1 C9)  (* 1 C10) ))  (>= 3008 (+  (* 4 C1)  (* 2 C2)  (* 2 C3)  (* 1 C4)  (* 1 C5)  (* 1 C6)  (* 1 C7)  (* 1 C8)  (* 1 C9)  (* 1 C10) ))  (>= 3296 (+  (* 5 C1)  (* 2 C2)  (* 2 C3)  (* 1 C4)  (* 1 C5)  (* 1 C6)  (* 1 C7)  (* 1 C8)  (* 1 C9)  (* 1 C10) ))  (>= 3760 (+  (* 5 C1)  (* 2 C2)  (* 2 C3)  (* 2 C4)  (* 1 C5)  (* 1 C6)  (* 1 C7)  (* 1 C8)  (* 1 C9)  (* 1 C10) ))  (>= 3972 (+  (* 6 C1)  (* 2 C2)  (* 2 C3)  (* 2 C4)  (* 1 C5)  (* 1 C6)  (* 1 C7)  (* 1 C8)  (* 1 C9)  (* 1 C10) ))  (>= 4012 (+  (* 6 C1)  (* 2 C2)  (* 2 C3)  (* 2 C4)  (* 2 C5)  (* 1 C6)  (* 1 C7)  (* 1 C8)  (* 1 C9)  (* 1 C10) ))  (>= 4276 (+  (* 6 C1)  (* 2 C2)  (* 2 C3)  (* 2 C4)  (* 2 C5)  (* 2 C6)  (* 1 C7)  (* 1 C8)  (* 1 C9)  (* 1 C10) ))  (>= 4512 (+  (* 6 C1)  (* 3 C2)  (* 2 C3)  (* 2 C4)  (* 2 C5)  (* 2 C6)  (* 1 C7)  (* 1 C8)  (* 1 C9)  (* 1 C10) ))  (>= 4583 (+  (* 7 C1)  (* 3 C2)  (* 2 C3)  (* 2 C4)  (* 2 C5)  (* 2 C6)  (* 1 C7)  (* 1 C8)  (* 1 C9)  (* 1 C10) ))  (>= 4788 (+  (* 7 C1)  (* 3 C2)  (* 2 C3)  (* 2 C4)  (* 2 C5)  (* 2 C6)  (* 2 C7)  (* 1 C8)  (* 1 C9)  (* 1 C10) ))  (>= 4800 (+  (* 7 C1)  (* 3 C2)  (* 2 C3)  (* 2 C4)  (* 2 C5)  (* 2 C6)  (* 2 C7)  (* 2 C8)  (* 1 C9)  (* 1 C10) ))  (>= 4855 (+  (* 7 C1)  (* 3 C2)  (* 2 C3)  (* 2 C4)  (* 2 C5)  (* 2 C6)  (* 2 C7)  (* 2 C8)  (* 2 C9)  (* 1 C10) )) )  (and (>= C1 7) (>= C2 21) (>= C3 24) (>= C4 32) (>= C5 39) (>= C6 40) (>= C7 45) (>= C8 47) (>= C9 48) (>= C10 48) )  (and (<= C1 306) (<= C2 870) (<= C3 998) (<= C4 1341) (<= C5 1617) (<= C6 1633) (<= C7 1865) (<= C8 1949) (<= C9 1954) (<= C10 1976) ) )))
(=> $phi $goal))))